Solving original (integer) problem with strategy gdp.hull...
--- Job model.gms Start 02/16/26 08:06:41 52.2.0 d8e408be LEX-LEG x86 64bit/Linux
--- Applying:
    /package/gams/52.2/gmsprmun.txt
--- GAMS Parameters defined
    Input /local/scratch/a/sgusev/repos/k_means/data/gams_scip_gdp.hull/no_mode/2026-02-16_08-06-41/original/model.gms
    Output /local/scratch/a/sgusev/repos/k_means/data/gams_scip_gdp.hull/no_mode/2026-02-16_08-06-41/original/output.lst
    ScrDir /local/scratch/a/sgusev/repos/k_means/data/gams_scip_gdp.hull/no_mode/2026-02-16_08-06-41/original/225a/
    SysDir /package/gams/52.2/
    CurDir /local/scratch/a/sgusev/repos/k_means/data/gams_scip_gdp.hull/no_mode/2026-02-16_08-06-41/original/
    LogOption 3
    AppendLog 1
Licensee: David Bernal / SECQUOIA Research Group         G251008+0003Ac-GEN
          Purdue University, Davidson School of Chemical EngineeringDCE4838
          225a/gamslice.dat
          5a82958a-fbca-4a23
          node:66820903 mem:995 cores:48 ipport:56817 v:2                  
          Evaluation license: Not for commercial or production use
          The time-limited license stops working on : Jun 30, 2027
System information: 48 physical cores and 995 Gb physical memory detected
GAMS 52.2.0   Copyright (C) 1987-2025 GAMS Development. All rights reserved
--- Starting compilation
--- model.gms(3356) 2 Mb
--- $echo File /local/scratch/a/sgusev/repos/k_means/data/gams_scip_gdp.hull/no_mode/2026-02-16_08-06-41/original/scip.opt
--- model.gms(4924) 2 Mb
--- Starting execution: elapsed 0:00:00.018
--- model.gms(3366) 3 Mb
--- Generating MINLP model GAMS_MODEL
--- model.gms(3370) 6 Mb
---   1,023 rows  478 columns  2,465 non-zeroes
---   2,205 nl-code  270 nl-non-zeroes
---   45 discrete-columns
--- Range statistics (absolute non-zero finite values)
--- RHS       [min, max] : [ 4.810E-05, 1.000E+00] - Zero values observed as well
--- Bound     [min, max] : [ 1.000E+00, 1.200E+02] - Zero values observed as well
--- Matrix    [min, max] : [ 1.846E-02, 1.200E+02]
--- model.gms(3370) 4 Mb
--- Executing SCIP (Solvelink=5): elapsed 0:00:00.024

SCIP             52.2.0 d8e408be Dec 8, 2025           LEG x86 64bit/Linux    
SCIP version 9.2.4 (a94f778ac8)
Copyright (c) 2002-2025 Zuse Institute Berlin (ZIB)

External libraries: 
  CPLEX 22.1.2.0       Linear Programming Solver developed by IBM (www.cplex.com)
  CppAD 20180000.0     Algorithmic Differentiation of C++ algorithms developed by B. Bell (github.com/coin-or/CppAD)
  PaPILO 2.4.4         parallel presolve for integer and linear optimization (github.com/scipopt/papilo) (built with TBB) [GitHash: 7c826d50]
  Nauty 2.8.9          Computing Graph Automorphism Groups by Brendan D. McKay (users.cecs.anu.edu.au/~bdm/nauty)
  sassy 1.1            Symmetry preprocessor by Markus Anders (github.com/markusa4/sassy)
  Ipopt 3.14.19        Interior Point Optimizer developed by A. Waechter et.al. (github.com/coin-or/Ipopt)

reading option file /local/scratch/a/sgusev/repos/k_means/data/gams_scip_gdp.hull/no_mode/2026-02-16_08-06-41/original/scip.opt
non-default parameter settings:
limits/time = 300
limits/gap = 1e-06
limits/absgap = 1e-10
lp/threads = 1
misc/printreason = FALSE
numerics/dualfeastol = 1e-06
parallel/maxnthreads = 1
nlpi/ipopt/linear_solver = "ma27"
nlpi/ipopt/linear_system_scaling = "mc19"

original problem has 477 variables (45 bin, 0 int, 432 cont) and 1022 constraints

all 1 solutions given by solution candidate storage are infeasible

presolving:
(round 1, fast)       15 del vars, 0 del conss, 0 add conss, 0 chg bounds, 0 chg sides, 0 chg coeffs, 0 upgd conss, 0 impls, 15 clqs
(round 2, fast)       15 del vars, 0 del conss, 0 add conss, 0 chg bounds, 15 chg sides, 0 chg coeffs, 0 upgd conss, 0 impls, 15 clqs
(round 3, exhaustive) 15 del vars, 0 del conss, 0 add conss, 0 chg bounds, 15 chg sides, 0 chg coeffs, 780 upgd conss, 0 impls, 15 clqs
   (0.1s) probing cycle finished: starting next cycle
   (0.1s) symmetry computation started: requiring (bin +, int +, cont +), (fixed: bin -, int -, cont -)
   (0.1s) no symmetry present (symcode time: 0.00)
presolving (4 rounds: 4 fast, 2 medium, 2 exhaustive):
 15 deleted vars, 0 deleted constraints, 0 added constraints, 0 tightened bounds, 0 added holes, 15 changed sides, 0 changed coefficients
 1575 implications, 15 cliques
presolved problem has 462 variables (45 bin, 0 int, 0 impl, 417 cont) and 1022 constraints
    765 constraints of type <varbound>
     15 constraints of type <setppc>
    197 constraints of type <linear>
     45 constraints of type <nonlinear>
Presolving Time: 0.07

 time | node  | left  |LP iter|LP it/n|mem/heur|mdpt |vars |cons |rows |cuts |sepa|confs|strbr|  dualbound   | primalbound  |  gap   | compl. 
  0.1s|     1 |     0 |  1047 |     - |    18M |   0 |1632 |1022 |2601 |   0 |  0 |   0 |   0 | 0.000000e+00 |      --      |    Inf | unknown
o 0.2s|     1 |     0 |  1142 |     - |feaspump|   0 |1632 |1022 |2601 |   0 |  0 |   0 |   0 | 0.000000e+00 | 1.617126e+01 |    Inf | unknown
  0.2s|     1 |     0 |  1389 |     - |    20M |   0 |1632 |1022 |2684 |  83 |  1 |   0 |   0 | 0.000000e+00 | 1.617126e+01 |    Inf | unknown
  0.2s|     1 |     0 |  1389 |     - |    20M |   0 |1632 |1022 |2669 |  83 |  1 |   0 |   0 | 0.000000e+00 | 1.617126e+01 |    Inf | unknown
  0.3s|     1 |     0 |  1598 |     - |    21M |   0 |1632 |1022 |2748 | 162 |  2 |   0 |   0 | 0.000000e+00 | 1.617126e+01 |    Inf | unknown
  0.3s|     1 |     0 |  1765 |     - |    21M |   0 |1632 |1022 |2835 | 249 |  3 |   0 |   0 | 0.000000e+00 | 1.617126e+01 |    Inf | unknown
  0.4s|     1 |     0 |  1890 |     - |    21M |   0 |1632 |1022 |2920 | 334 |  4 |   0 |   0 | 0.000000e+00 | 1.617126e+01 |    Inf | unknown
  0.4s|     1 |     0 |  2054 |     - |    22M |   0 |1632 |1022 |2995 | 409 |  5 |   0 |   0 | 0.000000e+00 | 1.617126e+01 |    Inf | unknown
  0.4s|     1 |     0 |  2183 |     - |    22M |   0 |1632 |1022 |3078 | 492 |  6 |   0 |   0 | 0.000000e+00 | 1.617126e+01 |    Inf | unknown
  0.4s|     1 |     0 |  2288 |     - |    23M |   0 |1632 |1022 |3142 | 556 |  7 |   0 |   0 | 0.000000e+00 | 1.617126e+01 |    Inf | unknown
  0.5s|     1 |     0 |  2411 |     - |    23M |   0 |1632 |1022 |3207 | 621 |  8 |   0 |   0 | 0.000000e+00 | 1.617126e+01 |    Inf | unknown
  0.5s|     1 |     0 |  2543 |     - |    23M |   0 |1632 |1022 |3265 | 679 |  9 |   0 |   0 | 0.000000e+00 | 1.617126e+01 |    Inf | unknown
  0.5s|     1 |     0 |  2642 |     - |    24M |   0 |1632 |1022 |3320 | 734 | 10 |   0 |   0 | 0.000000e+00 | 1.617126e+01 |    Inf | unknown
  0.6s|     1 |     0 |  2704 |     - |    24M |   0 |1632 |1022 |3374 | 788 | 11 |   0 |   0 | 0.000000e+00 | 1.617126e+01 |    Inf | unknown
  0.6s|     1 |     0 |  2838 |     - |    24M |   0 |1632 |1022 |3424 | 838 | 12 |   0 |   0 | 0.000000e+00 | 1.617126e+01 |    Inf | unknown
 time | node  | left  |LP iter|LP it/n|mem/heur|mdpt |vars |cons |rows |cuts |sepa|confs|strbr|  dualbound   | primalbound  |  gap   | compl. 
  0.6s|     1 |     0 |  2930 |     - |    25M |   0 |1632 |1022 |2062 | 896 | 13 |   0 |   0 | 0.000000e+00 | 1.617126e+01 |    Inf | unknown
  0.6s|     1 |     0 |  2980 |     - |    25M |   0 |1632 |1022 |2098 | 932 | 14 |   0 |   0 | 0.000000e+00 | 1.617126e+01 |    Inf | unknown
  0.7s|     1 |     0 |  3087 |     - |    25M |   0 |1632 |1022 |2139 | 973 | 15 |   0 |   0 | 0.000000e+00 | 1.617126e+01 |    Inf | unknown
  0.7s|     1 |     0 |  3184 |     - |    25M |   0 |1632 |1022 |2198 |1032 | 16 |   0 |   0 | 0.000000e+00 | 1.617126e+01 |    Inf | unknown
  2.1s|     1 |     0 | 21420 |     - |    26M |   0 |1632 |1007 |2198 |1032 | 16 |   0 |   0 | 0.000000e+00 | 1.617126e+01 |    Inf | unknown
  2.1s|     1 |     0 | 21565 |     - |    26M |   0 |1632 |1007 |2236 |1070 | 17 |   0 |   0 | 0.000000e+00 | 1.617126e+01 |    Inf | unknown
  2.1s|     1 |     0 | 21597 |     - |    26M |   0 |1632 |1007 |2273 |1107 | 18 |   0 |   0 | 0.000000e+00 | 1.617126e+01 |    Inf | unknown
  2.1s|     1 |     0 | 21637 |     - |    26M |   0 |1632 |1007 |1912 |1129 | 19 |   0 |   0 | 0.000000e+00 | 1.617126e+01 |    Inf | unknown
  2.1s|     1 |     0 | 21677 |     - |    27M |   0 |1632 |1007 |1951 |1168 | 20 |   0 |   0 | 0.000000e+00 | 1.617126e+01 |    Inf | unknown
  2.1s|     1 |     0 | 21711 |     - |    27M |   0 |1632 |1007 |1991 |1208 | 21 |   0 |   0 | 0.000000e+00 | 1.617126e+01 |    Inf | unknown
  2.2s|     1 |     0 | 21734 |     - |    27M |   0 |1632 |1007 |2015 |1232 | 22 |   0 |   0 | 0.000000e+00 | 1.617126e+01 |    Inf | unknown
  2.2s|     1 |     0 | 21763 |     - |    27M |   0 |1632 |1007 |2022 |1239 | 23 |   0 |   0 | 0.000000e+00 | 1.617126e+01 |    Inf | unknown
  2.2s|     1 |     0 | 21804 |     - |    27M |   0 |1632 |1007 |2053 |1270 | 24 |   0 |   0 | 0.000000e+00 | 1.617126e+01 |    Inf | unknown
  2.2s|     1 |     0 | 21839 |     - |    27M |   0 |1632 |1007 |1798 |1287 | 25 |   0 |   0 | 0.000000e+00 | 1.617126e+01 |    Inf | unknown
  2.3s|     1 |     0 | 21850 |     - |    27M |   0 |1632 |1007 |1823 |1312 | 26 |   0 |   0 | 0.000000e+00 | 1.617126e+01 |    Inf | unknown
 time | node  | left  |LP iter|LP it/n|mem/heur|mdpt |vars |cons |rows |cuts |sepa|confs|strbr|  dualbound   | primalbound  |  gap   | compl. 
  2.3s|     1 |     0 | 21882 |     - |    27M |   0 |1632 |1007 |1833 |1322 | 27 |   0 |   0 | 0.000000e+00 | 1.617126e+01 |    Inf | unknown
L 2.5s|     1 |     0 | 21959 |     - |    rens|   0 |1632 |1007 |1833 |1322 | 27 |   0 |   0 | 0.000000e+00 | 1.394868e+01 |    Inf | unknown
d 2.9s|     1 |     0 | 21959 |     - |    mpec|   0 |1632 |1007 |1833 |1322 | 27 |   0 |   0 | 0.000000e+00 | 1.380293e+01 |    Inf | unknown
  2.9s|     1 |     0 | 21959 |     - |    29M |   0 |1632 |1007 |1833 |1322 | 27 |   0 |   0 | 0.000000e+00 | 1.380293e+01 |    Inf | unknown
  3.0s|     1 |     0 | 21982 |     - |    29M |   0 |1632 |1007 |1861 |1350 | 28 |   0 |   0 | 0.000000e+00 | 1.380293e+01 |    Inf | unknown
  3.0s|     1 |     0 | 21982 |     - |    29M |   0 |1632 |1007 |1861 |1350 | 29 |   0 |   1 | 0.000000e+00 | 1.380293e+01 |    Inf | unknown
  3.0s|     1 |     0 | 22014 |     - |    29M |   0 |1632 |1007 |1889 |1378 | 30 |   0 |   1 | 0.000000e+00 | 1.380293e+01 |    Inf | unknown
  3.0s|     1 |     0 | 22044 |     - |    29M |   0 |1632 |1007 |1724 |1380 | 31 |   0 |   1 | 0.000000e+00 | 1.380293e+01 |    Inf | unknown
  3.0s|     1 |     0 | 22053 |     - |    29M |   0 |1632 |1007 |1724 |1380 | 31 |   0 |   2 | 0.000000e+00 | 1.380293e+01 |    Inf | unknown
  3.0s|     1 |     0 | 22071 |     - |    29M |   0 |1632 |1007 |1756 |1412 | 32 |   0 |   2 | 0.000000e+00 | 1.380293e+01 |    Inf | unknown
  3.0s|     1 |     0 | 22079 |     - |    29M |   0 |1632 |1007 |1761 |1417 | 33 |   0 |   2 | 0.000000e+00 | 1.380293e+01 |    Inf | unknown
  3.0s|     1 |     0 | 22084 |     - |    29M |   0 |1632 |1007 |1761 |1417 | 33 |   0 |   3 | 0.000000e+00 | 1.380293e+01 |    Inf | unknown
  3.0s|     1 |     0 | 22187 |     - |    29M |   0 |1632 |1007 |1802 |1458 | 34 |   0 |   3 | 0.000000e+00 | 1.380293e+01 |    Inf | unknown
  3.0s|     1 |     0 | 22230 |     - |    29M |   0 |1632 |1007 |1667 |1470 | 35 |   0 |   3 | 0.000000e+00 | 1.380293e+01 |    Inf | unknown
  3.1s|     1 |     0 | 22232 |     - |    30M |   0 |1632 |1007 |1667 |1470 | 35 |   0 |   4 | 0.000000e+00 | 1.380293e+01 |    Inf | unknown
 time | node  | left  |LP iter|LP it/n|mem/heur|mdpt |vars |cons |rows |cuts |sepa|confs|strbr|  dualbound   | primalbound  |  gap   | compl. 
  3.1s|     1 |     0 | 22299 |     - |    30M |   0 |1632 |1007 |1717 |1520 | 36 |   0 |   4 | 0.000000e+00 | 1.380293e+01 |    Inf | unknown
  3.1s|     1 |     0 | 22361 |     - |    30M |   0 |1632 |1007 |1724 |1527 | 37 |   0 |   4 | 0.000000e+00 | 1.380293e+01 |    Inf | unknown
  3.1s|     1 |     0 | 22372 |     - |    30M |   0 |1632 |1007 |1724 |1527 | 37 |   0 |   5 | 0.000000e+00 | 1.380293e+01 |    Inf | unknown
  3.1s|     1 |     0 | 22460 |     - |    30M |   0 |1632 |1007 |1775 |1578 | 38 |   0 |   5 | 0.000000e+00 | 1.380293e+01 |    Inf | unknown
  3.1s|     1 |     0 | 22483 |     - |    30M |   0 |1632 |1007 |1653 |1587 | 39 |   0 |   5 | 0.000000e+00 | 1.380293e+01 |    Inf | unknown
  3.1s|     1 |     0 | 22485 |     - |    30M |   0 |1632 |1007 |1653 |1587 | 39 |   0 |   6 | 0.000000e+00 | 1.380293e+01 |    Inf | unknown
  3.1s|     1 |     0 | 22591 |     - |    30M |   0 |1632 |1007 |1709 |1643 | 40 |   0 |   6 | 0.000000e+00 | 1.380293e+01 |    Inf | unknown
  3.1s|     1 |     0 | 22615 |     - |    30M |   0 |1632 |1007 |1720 |1654 | 41 |   0 |   6 | 0.000000e+00 | 1.380293e+01 |    Inf | unknown
  3.1s|     1 |     0 | 22617 |     - |    30M |   0 |1632 |1007 |1720 |1654 | 41 |   0 |   7 | 0.000000e+00 | 1.380293e+01 |    Inf | unknown
  3.2s|     1 |     0 | 22695 |     - |    30M |   0 |1632 |1007 |1775 |1709 | 42 |   0 |   7 | 0.000000e+00 | 1.380293e+01 |    Inf | unknown
  3.2s|     1 |     0 | 22716 |     - |    30M |   0 |1632 |1007 |1689 |1721 | 43 |   0 |   7 | 0.000000e+00 | 1.380293e+01 |    Inf | unknown
  3.2s|     1 |     0 | 22716 |     - |    30M |   0 |1632 |1007 |1689 |1721 | 43 |   0 |   8 | 0.000000e+00 | 1.380293e+01 |    Inf | unknown
  3.2s|     1 |     0 | 22825 |     - |    30M |   0 |1632 |1007 |1745 |1777 | 44 |   0 |   8 | 0.000000e+00 | 1.380293e+01 |    Inf | unknown
  3.2s|     1 |     0 | 22844 |     - |    30M |   0 |1632 |1007 |1750 |1782 | 45 |   0 |   8 | 0.000000e+00 | 1.380293e+01 |    Inf | unknown
  3.2s|     1 |     0 | 22894 |     - |    30M |   0 |1632 |1007 |1750 |1782 | 45 |   0 |   9 | 0.000000e+00 | 1.380293e+01 |    Inf | unknown
 time | node  | left  |LP iter|LP it/n|mem/heur|mdpt |vars |cons |rows |cuts |sepa|confs|strbr|  dualbound   | primalbound  |  gap   | compl. 
  3.2s|     1 |     0 | 22994 |     - |    30M |   0 |1632 |1007 |1797 |1829 | 46 |   0 |   9 | 0.000000e+00 | 1.380293e+01 |    Inf | unknown
  3.2s|     1 |     0 | 23028 |     - |    30M |   0 |1632 |1007 |1809 |1841 | 47 |   0 |   9 | 0.000000e+00 | 1.380293e+01 |    Inf | unknown
  3.2s|     1 |     0 | 23030 |     - |    30M |   0 |1632 |1007 |1677 |1841 | 47 |   0 |  10 | 0.000000e+00 | 1.380293e+01 |    Inf | unknown
  3.2s|     1 |     0 | 23089 |     - |    30M |   0 |1632 |1007 |1724 |1888 | 48 |   0 |  10 | 0.000000e+00 | 1.380293e+01 |    Inf | unknown
  3.2s|     1 |     0 | 23114 |     - |    30M |   0 |1632 |1007 |1736 |1900 | 49 |   0 |  10 | 0.000000e+00 | 1.380293e+01 |    Inf | unknown
  3.2s|     1 |     0 | 23127 |     - |    30M |   0 |1632 |1007 |1736 |1900 | 49 |   0 |  11 | 0.000000e+00 | 1.380293e+01 |    Inf | unknown
  3.3s|     1 |     0 | 23215 |     - |    30M |   0 |1632 |1007 |1787 |1951 | 50 |   0 |  11 | 0.000000e+00 | 1.380293e+01 |    Inf | unknown
  3.3s|     1 |     0 | 23273 |     - |    30M |   0 |1632 |1007 |1804 |1968 | 51 |   0 |  11 | 0.000000e+00 | 1.380293e+01 |    Inf | unknown
  3.3s|     1 |     0 | 23277 |     - |    30M |   0 |1632 |1007 |1668 |1968 | 51 |   0 |  12 | 0.000000e+00 | 1.380293e+01 |    Inf | unknown
  3.3s|     1 |     0 | 23360 |     - |    30M |   0 |1632 |1007 |1724 |2024 | 52 |   0 |  12 | 0.000000e+00 | 1.380293e+01 |    Inf | unknown
  3.3s|     1 |     0 | 23379 |     - |    30M |   0 |1632 |1007 |1735 |2035 | 53 |   0 |  12 | 0.000000e+00 | 1.380293e+01 |    Inf | unknown
  3.3s|     1 |     0 | 23383 |     - |    30M |   0 |1632 |1007 |1735 |2035 | 53 |   0 |  13 | 0.000000e+00 | 1.380293e+01 |    Inf | unknown
  3.3s|     1 |     0 | 23495 |     - |    30M |   0 |1632 |1007 |1803 |2103 | 54 |   0 |  13 | 0.000000e+00 | 1.380293e+01 |    Inf | unknown
  3.3s|     1 |     0 | 23524 |     - |    30M |   0 |1632 |1007 |1822 |2122 | 55 |   0 |  13 | 0.000000e+00 | 1.380293e+01 |    Inf | unknown
  3.3s|     1 |     0 | 23532 |     - |    30M |   0 |1632 |1007 |1706 |2122 | 55 |   0 |  14 | 0.000000e+00 | 1.380293e+01 |    Inf | unknown
 time | node  | left  |LP iter|LP it/n|mem/heur|mdpt |vars |cons |rows |cuts |sepa|confs|strbr|  dualbound   | primalbound  |  gap   | compl. 
  3.3s|     1 |     0 | 23608 |     - |    30M |   0 |1632 |1007 |1763 |2179 | 56 |   0 |  14 | 0.000000e+00 | 1.380293e+01 |    Inf | unknown
  3.3s|     1 |     0 | 23616 |     - |    30M |   0 |1632 |1007 |1769 |2185 | 57 |   0 |  14 | 0.000000e+00 | 1.380293e+01 |    Inf | unknown
  3.3s|     1 |     0 | 23616 |     - |    30M |   0 |1632 |1007 |1769 |2185 | 57 |   0 |  15 | 0.000000e+00 | 1.380293e+01 |    Inf | unknown
  3.4s|     1 |     0 | 23667 |     - |    30M |   0 |1632 |1007 |1834 |2250 | 58 |   0 |  15 | 0.000000e+00 | 1.380293e+01 |    Inf | unknown
  3.4s|     1 |     0 | 23673 |     - |    30M |   0 |1632 |1007 |1838 |2254 | 59 |   0 |  15 | 0.000000e+00 | 1.380293e+01 |    Inf | unknown
  3.4s|     1 |     0 | 23677 |     - |    30M |   0 |1632 |1007 |1838 |2254 | 59 |   0 |  16 | 0.000000e+00 | 1.380293e+01 |    Inf | unknown
  3.4s|     1 |     0 | 23751 |     - |    30M |   0 |1632 |1007 |1777 |2308 | 60 |   0 |  16 | 0.000000e+00 | 1.380293e+01 |    Inf | unknown
  3.4s|     1 |     0 | 23755 |     - |    30M |   0 |1632 |1007 |1779 |2310 | 61 |   0 |  16 | 0.000000e+00 | 1.380293e+01 |    Inf | unknown
  3.4s|     1 |     0 | 23781 |     - |    30M |   0 |1632 |1007 |1779 |2310 | 61 |   0 |  17 | 0.000000e+00 | 1.380293e+01 |    Inf | unknown
  3.4s|     1 |     0 | 23843 |     - |    30M |   0 |1632 |1007 |1838 |2369 | 62 |   0 |  17 | 0.000000e+00 | 1.380293e+01 |    Inf | unknown
  3.4s|     1 |     0 | 23844 |     - |    30M |   0 |1632 |1007 |1839 |2370 | 63 |   0 |  17 | 0.000000e+00 | 1.380293e+01 |    Inf | unknown
  3.4s|     1 |     2 | 23844 |     - |    30M |   0 |1632 |1007 |1839 |2370 | 63 |   0 |  17 | 0.000000e+00 | 1.380293e+01 |    Inf | unknown
d 4.6s|    21 |    22 | 29343 |1212.5 |nlpdivin|  11 |1632 |1007 |2312 |   0 | 11 |   0 |  21 | 0.000000e+00 | 1.275834e+01 |    Inf | unknown
  8.2s|   100 |   101 | 52239 | 476.2 |    37M |  11 |1632 |1007 |1906 |  23k|  2 |   0 |  26 | 0.000000e+00 | 1.275834e+01 |    Inf | unknown
d10.8s|   150 |   151 | 65948 | 408.4 |nlpdivin|  14 |1632 |1007 |2403 |   0 |  7 |   0 |  48 | 0.000000e+00 | 9.367179e+00 |    Inf | unknown
 time | node  | left  |LP iter|LP it/n|mem/heur|mdpt |vars |cons |rows |cuts |sepa|confs|strbr|  dualbound   | primalbound  |  gap   | compl. 
 13.2s|   200 |   201 | 80067 | 376.8 |    47M |  14 |1632 |1007 |2010 |  43k|  4 |   0 |  60 | 0.000000e+00 | 9.367179e+00 |    Inf | unknown
 17.7s|   300 |   301 |110223 | 351.6 |    58M |  15 |1632 |1007 |2241 |  62k|  7 |   0 | 107 | 0.000000e+00 | 9.367179e+00 |    Inf | unknown
 23.2s|   400 |   401 |144127 | 348.5 |    68M |  16 |1632 |1007 |2027 |  84k|  2 |   0 | 134 | 1.399569e-01 | 9.367179e+00 |6592.90%| unknown
 27.4s|   500 |   501 |175958 | 342.4 |    81M |  23 |1632 |1007 |2039 |  98k|  2 |   0 | 180 | 5.441255e-01 | 9.367179e+00 |1621.51%| unknown
 32.4s|   600 |   601 |200457 | 326.2 |    93M |  23 |1632 |1007 |2249 | 117k| 11 |   0 | 209 | 6.687815e-01 | 9.367179e+00 |1300.63%| unknown
 36.7s|   700 |   701 |221997 | 310.3 |   101M |  23 |1632 |1007 |2239 | 134k|  4 |   0 | 266 | 9.439629e-01 | 9.367179e+00 | 892.32%| unknown
 40.7s|   800 |   801 |248755 | 305.0 |   107M |  23 |1632 |1007 |2373 | 151k| 10 |   0 | 304 | 1.189854e+00 | 9.367179e+00 | 687.25%| unknown
 45.4s|   900 |   901 |270556 | 295.3 |   114M |  23 |1632 |1007 |2289 | 167k|  2 |   0 | 355 | 1.344393e+00 | 9.367179e+00 | 596.76%| unknown
L46.9s|   939 |   932 |278985 | 292.0 |    alns|  23 |1632 |1007 |2473 | 172k| 12 |   0 | 366 | 1.388307e+00 | 8.962244e+00 | 545.55%| unknown
 49.6s|  1000 |   993 |293307 | 288.5 |   121M |  23 |1632 |1007 |2229 | 183k| 12 |   0 | 393 | 1.476038e+00 | 8.962244e+00 | 507.18%| unknown
 53.8s|  1100 |  1089 |315448 | 282.4 |   129M |  23 |1632 |1007 |2337 | 200k| 11 |   0 | 409 | 1.504373e+00 | 8.962244e+00 | 495.75%| unknown
 57.4s|  1200 |  1187 |339778 | 279.1 |   131M |  23 |1632 |1007 |2329 | 214k|  3 |   0 | 417 | 1.615433e+00 | 8.962244e+00 | 454.79%| unknown
 61.3s|  1300 |  1287 |369593 | 280.6 |   139M |  29 |1632 |1007 |2171 | 227k|  7 |   0 | 453 | 1.683269e+00 | 8.962244e+00 | 432.43%| unknown
L65.3s|  1394 |  1375 |396472 | 281.0 |crossove|  30 |1632 |1007 |2325 | 240k|  0 |   0 | 469 | 1.735543e+00 | 8.644026e+00 | 398.06%| unknown
 65.4s|  1400 |  1379 |399247 | 281.7 |   145M |  35 |1632 |1007 |2417 | 240k|  0 |   0 | 469 | 1.735543e+00 | 8.644026e+00 | 398.06%| unknown
 time | node  | left  |LP iter|LP it/n|mem/heur|mdpt |vars |cons |rows |cuts |sepa|confs|strbr|  dualbound   | primalbound  |  gap   | compl. 
 68.9s|  1500 |  1447 |420276 | 277.0 |   150M |  35 |1632 |1007 |2534 | 254k| 11 |   0 | 498 | 1.749151e+00 | 8.644026e+00 | 394.18%| unknown
 72.8s|  1600 |  1523 |436859 | 270.0 |   152M |  35 |1632 |1007 |1828 | 266k|  2 |   0 | 512 | 1.794911e+00 | 8.644026e+00 | 381.59%| unknown
 76.4s|  1700 |  1609 |457681 | 266.4 |   159M |  35 |1632 |1007 |2304 | 282k|  7 |   0 | 532 | 1.821061e+00 | 8.644026e+00 | 374.67%| unknown
 80.6s|  1800 |  1701 |482385 | 265.3 |   164M |  35 |1632 |1007 |2369 | 297k|  9 |   0 | 548 | 1.873436e+00 | 8.644026e+00 | 361.40%| unknown
 84.1s|  1900 |  1781 |506077 | 263.8 |   168M |  35 |1632 |1007 |2155 | 312k|  4 |   0 | 570 | 1.873436e+00 | 8.644026e+00 | 361.40%| unknown
 87.4s|  2000 |  1857 |533301 | 264.2 |   171M |  35 |1632 |1007 |2241 | 325k|  3 |   0 | 578 | 1.873436e+00 | 8.644026e+00 | 361.40%| unknown
 90.2s|  2100 |  1949 |572214 | 270.2 |   175M |  39 |1632 |1007 |2507 | 334k| 10 |   0 | 581 | 1.873436e+00 | 8.644026e+00 | 361.40%| unknown
 93.9s|  2200 |  2037 |592339 | 267.1 |   182M |  39 |1632 |1007 |2439 | 349k| 11 |   0 | 598 | 1.873436e+00 | 8.644026e+00 | 361.40%| unknown
 97.6s|  2300 |  2129 |609577 | 262.9 |   186M |  39 |1632 |1007 |2518 | 362k|  9 |   0 | 607 | 1.921817e+00 | 8.644026e+00 | 349.78%| unknown
  101s|  2400 |  2193 |627791 | 259.6 |   189M |  39 |1632 |1007 |2368 | 376k|  9 |   0 | 622 | 1.948288e+00 | 8.644026e+00 | 343.67%| unknown
  105s|  2500 |  2265 |649131 | 257.7 |   193M |  39 |1632 |1007 |2396 | 392k|  8 |   0 | 636 | 2.031059e+00 | 8.644026e+00 | 325.59%| unknown
  109s|  2600 |  2351 |670711 | 256.1 |   200M |  39 |1632 |1007 |2152 | 407k|  9 |   0 | 651 | 2.095954e+00 | 8.644026e+00 | 312.41%| unknown
  112s|  2700 |  2431 |687806 | 253.0 |   202M |  39 |1632 |1007 |2218 | 421k|  9 |   0 | 666 | 2.109187e+00 | 8.644026e+00 | 309.83%|   5.00%
  114s|  2800 |  2509 |748338 | 265.5 |   205M |  39 |1632 |1007 |2601 | 424k|  0 |   0 | 671 | 2.109187e+00 | 8.644026e+00 | 309.83%|   5.04%
  117s|  2900 |  2575 |775145 | 265.6 |   209M |  39 |1632 |1007 |2249 | 436k| 10 |   0 | 683 | 2.109187e+00 | 8.644026e+00 | 309.83%|   5.12%
 time | node  | left  |LP iter|LP it/n|mem/heur|mdpt |vars |cons |rows |cuts |sepa|confs|strbr|  dualbound   | primalbound  |  gap   | compl. 
  120s|  3000 |  2657 |812051 | 269.1 |   210M |  39 |1632 |1007 |2605 | 445k|  0 |   0 | 699 | 2.109187e+00 | 8.644026e+00 | 309.83%|   5.14%
  122s|  3100 |  2735 |859288 | 275.6 |   212M |  41 |1632 |1007 |2443 | 449k|  4 |   0 | 704 | 2.109187e+00 | 8.644026e+00 | 309.83%|   5.15%
  125s|  3200 |  2823 |878594 | 273.1 |   216M |  41 |1632 |1007 |2303 | 463k|  8 |   0 | 731 | 2.109187e+00 | 8.644026e+00 | 309.83%|   5.19%
  129s|  3300 |  2885 |898172 | 270.7 |   221M |  41 |1632 |1007 |2356 | 474k|  2 |   0 | 757 | 2.109187e+00 | 8.644026e+00 | 309.83%|   5.27%
  131s|  3400 |  2947 |923712 | 270.3 |   224M |  41 |1632 |1007 |1976 | 484k|  2 |   0 | 762 | 2.109187e+00 | 8.644026e+00 | 309.83%|   5.35%
  135s|  3500 |  3011 |944839 | 268.6 |   228M |  41 |1632 |1007 |2474 | 497k| 10 |   0 | 772 | 2.109187e+00 | 8.644026e+00 | 309.83%|   5.53%
  138s|  3600 |  3069 |961533 | 265.8 |   234M |  41 |1632 |1007 |2250 | 510k|  2 |   0 | 782 | 2.109187e+00 | 8.644026e+00 | 309.83%|   5.72%
  141s|  3700 |  3145 |980646 | 263.7 |   237M |  41 |1632 |1007 |2286 | 520k|  9 |   0 | 791 | 2.109187e+00 | 8.644026e+00 | 309.83%|   5.80%
  144s|  3800 |  3201 |  1011k| 265.0 |   240M |  41 |1632 |1007 |2304 | 531k|  8 |   0 | 801 | 2.109187e+00 | 8.644026e+00 | 309.83%|   5.81%
  147s|  3900 |  3255 |  1031k| 263.2 |   243M |  41 |1632 |1007 |2120 | 543k|  2 |   0 | 810 | 2.109187e+00 | 8.644026e+00 | 309.83%|   5.91%
  150s|  4000 |  3321 |  1058k| 263.5 |   246M |  41 |1632 |1007 |2453 | 556k|  8 |   0 | 816 | 2.109187e+00 | 8.644026e+00 | 309.83%|   5.94%
  153s|  4100 |  3389 |  1073k| 260.7 |   248M |  41 |1632 |1007 |2461 | 567k|  8 |   0 | 829 | 2.109187e+00 | 8.644026e+00 | 309.83%|   6.01%
  156s|  4200 |  3429 |  1112k| 263.8 |   249M |  41 |1632 |1007 |2046 | 577k|  2 |   0 | 838 | 2.109187e+00 | 8.644026e+00 | 309.83%|   6.06%
  159s|  4300 |  3495 |  1129k| 261.6 |   253M |  41 |1632 |1007 |2357 | 590k|  2 |   0 | 847 | 2.109187e+00 | 8.644026e+00 | 309.83%|   6.16%
  162s|  4400 |  3551 |  1146k| 259.6 |   256M |  41 |1632 |1007 |2500 | 600k|  8 |   0 | 852 | 2.109187e+00 | 8.644026e+00 | 309.83%|   6.18%
 time | node  | left  |LP iter|LP it/n|mem/heur|mdpt |vars |cons |rows |cuts |sepa|confs|strbr|  dualbound   | primalbound  |  gap   | compl. 
  164s|  4500 |  3609 |  1171k| 259.3 |   258M |  41 |1632 |1007 |2325 | 612k|  9 |   0 | 860 | 2.109187e+00 | 8.644026e+00 | 309.83%|   6.20%
  168s|  4600 |  3677 |  1197k| 259.2 |   263M |  41 |1632 |1007 |2258 | 625k|  9 |   0 | 865 | 2.109187e+00 | 8.644026e+00 | 309.83%|   6.26%
  171s|  4700 |  3725 |  1218k| 258.2 |   265M |  41 |1632 |1007 |2350 | 634k|  8 |   0 | 875 | 2.109187e+00 | 8.644026e+00 | 309.83%|   6.36%
  174s|  4800 |  3775 |  1257k| 260.9 |   266M |  41 |1632 |1007 |2221 | 644k|  2 |   0 | 884 | 2.109187e+00 | 8.644026e+00 | 309.83%|   6.39%
  177s|  4900 |  3841 |  1285k| 261.4 |   272M |  41 |1632 |1007 |2365 | 655k|  3 |   0 | 898 | 2.109187e+00 | 8.644026e+00 | 309.83%|   6.45%
  180s|  5000 |  3891 |  1321k| 263.3 |   274M |  41 |1632 |1007 |2344 | 665k|  9 |   0 | 904 | 2.109187e+00 | 8.644026e+00 | 309.83%|   6.49%
  183s|  5100 |  3953 |  1349k| 263.7 |   279M |  41 |1632 |1007 |2292 | 676k|  9 |   0 | 919 | 2.109187e+00 | 8.644026e+00 | 309.83%|   6.57%
  187s|  5200 |  4023 |  1367k| 262.0 |   283M |  41 |1632 |1007 |2508 | 689k| 12 |   0 | 925 | 2.109187e+00 | 8.644026e+00 | 309.83%|   6.65%
  190s|  5300 |  4081 |  1383k| 260.2 |   285M |  41 |1632 |1007 |2430 | 699k|  8 |   0 | 936 | 2.109187e+00 | 8.644026e+00 | 309.83%|   6.72%
  192s|  5400 |  4141 |  1399k| 258.2 |   288M |  41 |1632 |1007 |1975 | 711k|  2 |   0 | 942 | 2.109187e+00 | 8.644026e+00 | 309.83%|   6.81%
  195s|  5500 |  4193 |  1423k| 257.9 |   292M |  45 |1632 |1007 |2222 | 722k|  2 |   0 | 946 | 2.109187e+00 | 8.644026e+00 | 309.83%|   6.87%
  198s|  5600 |  4243 |  1448k| 257.9 |   294M |  45 |1632 |1007 |2538 | 730k|  7 |   0 | 952 | 2.109187e+00 | 8.644026e+00 | 309.83%|   6.92%
  201s|  5700 |  4315 |  1466k| 256.4 |   300M |  45 |1632 |1007 |2408 | 745k|  7 |   0 | 961 | 2.109187e+00 | 8.644026e+00 | 309.83%|   6.97%
  204s|  5800 |  4375 |  1480k| 254.3 |   303M |  45 |1632 |1007 |2277 | 756k|  8 |   0 | 975 | 2.109187e+00 | 8.644026e+00 | 309.83%|   7.08%
  206s|  5900 |  4429 |  1499k| 253.3 |   305M |  48 |1632 |1007 |2250 | 767k|  2 |   0 | 987 | 2.109187e+00 | 8.644026e+00 | 309.83%|   7.10%
 time | node  | left  |LP iter|LP it/n|mem/heur|mdpt |vars |cons |rows |cuts |sepa|confs|strbr|  dualbound   | primalbound  |  gap   | compl. 
  209s|  6000 |  4477 |  1527k| 253.7 |   309M |  51 |1632 |1007 |2153 | 777k|  2 |   1 | 993 | 2.109187e+00 | 8.644026e+00 | 309.83%|   7.25%
  212s|  6100 |  4521 |  1544k| 252.4 |   311M |  51 |1632 |1007 |2567 | 786k|  2 |   2 | 998 | 2.109187e+00 | 8.644026e+00 | 309.83%|   7.26%
  215s|  6200 |  4571 |  1569k| 252.3 |   313M |  55 |1632 |1007 |2297 | 794k|  7 |   2 |1000 | 2.109187e+00 | 8.644026e+00 | 309.83%|   7.30%
  218s|  6300 |  4613 |  1583k| 250.5 |   314M |  55 |1632 |1007 |2395 | 804k|  1 |   2 |1007 | 2.109187e+00 | 8.644026e+00 | 309.83%|   7.43%
  220s|  6400 |  4653 |  1599k| 249.2 |   318M |  55 |1632 |1007 |2201 | 813k|  0 |   2 |1018 | 2.109187e+00 | 8.644026e+00 | 309.83%|   7.60%
  224s|  6500 |  4703 |  1631k| 250.3 |   321M |  55 |1632 |1007 |2173 | 821k|  8 |   2 |1023 | 2.109187e+00 | 8.644026e+00 | 309.83%|   7.63%
  226s|  6600 |  4749 |  1649k| 249.2 |   322M |  55 |1632 |1007 |2054 | 830k|  2 |   2 |1023 | 2.109187e+00 | 8.644026e+00 | 309.83%|   7.78%
  230s|  6700 |  4799 |  1671k| 248.7 |   324M |  57 |1632 |1007 |2523 | 840k|  8 |   2 |1028 | 2.109187e+00 | 8.644026e+00 | 309.83%|   7.83%
  232s|  6800 |  4847 |  1683k| 246.9 |   326M |  57 |1632 |1007 |2219 | 850k|  4 |   2 |1037 | 2.109187e+00 | 8.644026e+00 | 309.83%|   7.87%
  235s|  6900 |  4887 |  1706k| 246.5 |   328M |  57 |1632 |1007 |2261 | 860k|  3 |   2 |1041 | 2.109187e+00 | 8.644026e+00 | 309.83%|   7.91%
  238s|  7000 |  4945 |  1724k| 245.7 |   331M |  57 |1632 |1007 |2544 | 870k| 11 |   2 |1047 | 2.109187e+00 | 8.644026e+00 | 309.83%|   7.96%
  240s|  7100 |  4991 |  1743k| 244.9 |   333M |  57 |1632 |1007 |2619 | 880k|  9 |   2 |1051 | 2.109187e+00 | 8.644026e+00 | 309.83%|   8.04%
  243s|  7200 |  5029 |  1759k| 243.8 |   336M |  57 |1632 |1007 |2216 | 889k|  2 |   3 |1053 | 2.109187e+00 | 8.644026e+00 | 309.83%|   8.07%
  245s|  7300 |  5071 |  1780k| 243.2 |   338M |  59 |1632 |1007 |2572 | 897k| 12 |   3 |1059 | 2.109187e+00 | 8.644026e+00 | 309.83%|   8.13%
  248s|  7400 |  5109 |  1794k| 241.9 |   340M |  59 |1632 |1007 |2268 | 907k|  2 |   3 |1064 | 2.109187e+00 | 8.644026e+00 | 309.83%|   8.18%
 time | node  | left  |LP iter|LP it/n|mem/heur|mdpt |vars |cons |rows |cuts |sepa|confs|strbr|  dualbound   | primalbound  |  gap   | compl. 
  250s|  7500 |  5153 |  1813k| 241.1 |   342M |  59 |1632 |1007 |2630 | 917k|  7 |   3 |1072 | 2.109187e+00 | 8.644026e+00 | 309.83%|   8.29%
  253s|  7600 |  5205 |  1832k| 240.4 |   346M |  59 |1632 |1007 |2192 | 928k|  2 |   3 |1080 | 2.109187e+00 | 8.644026e+00 | 309.83%|   8.33%
  256s|  7700 |  5239 |  1852k| 240.0 |   347M |  59 |1632 |1007 |2203 | 937k|  3 |   3 |1081 | 2.109187e+00 | 8.644026e+00 | 309.83%|   8.38%
  258s|  7800 |  5269 |  1874k| 239.7 |   349M |  62 |1632 |1007 |2695 | 946k|  5 |   3 |1083 | 2.109187e+00 | 8.644026e+00 | 309.83%|   8.52%
  260s|  7900 |  5317 |  1891k| 238.8 |   352M |  62 |1632 |1007 |2293 | 954k|  3 |   3 |1090 | 2.109187e+00 | 8.644026e+00 | 309.83%|   8.60%
  262s|  8000 |  5347 |  1917k| 239.0 |   353M |  62 |1632 |1007 |2499 | 962k|  9 |   3 |1096 | 2.109187e+00 | 8.644026e+00 | 309.83%|   8.71%
  264s|  8100 |  5367 |  1940k| 238.9 |   354M |  62 |1632 |1007 |2143 | 968k|  3 |   3 |1097 | 2.109187e+00 | 8.644026e+00 | 309.83%|   8.85%
  266s|  8200 |  5397 |  1959k| 238.4 |   356M |  63 |1632 |1007 |2436 | 975k|  3 |   4 |1105 | 2.109187e+00 | 8.644026e+00 | 309.83%|   8.91%
  268s|  8300 |  5439 |  1975k| 237.5 |   357M |  63 |1632 |1007 |2463 | 983k|  6 |   4 |1113 | 2.109187e+00 | 8.644026e+00 | 309.83%|   8.93%
  270s|  8400 |  5471 |  1990k| 236.4 |   359M |  63 |1632 |1007 |2105 | 990k|  2 |   4 |1113 | 2.109187e+00 | 8.644026e+00 | 309.83%|   8.96%
  273s|  8500 |  5521 |  2002k| 235.1 |   360M |  63 |1632 |1007 |2247 |1001k|  3 |   5 |1121 | 2.109187e+00 | 8.644026e+00 | 309.83%|   9.00%
  276s|  8600 |  5557 |  2020k| 234.3 |   362M |  63 |1632 |1007 |2296 |1009k| 10 |   5 |1127 | 2.109187e+00 | 8.644026e+00 | 309.83%|   9.08%
  278s|  8700 |  5603 |  2041k| 234.1 |   365M |  63 |1632 |1007 |2162 |1019k|  3 |   5 |1130 | 2.109187e+00 | 8.644026e+00 | 309.83%|   9.11%
  281s|  8800 |  5637 |  2059k| 233.4 |   365M |  63 |1632 |1007 |2390 |1027k|  9 |   6 |1140 | 2.109187e+00 | 8.644026e+00 | 309.83%|   9.22%
  283s|  8900 |  5681 |  2075k| 232.7 |   367M |  63 |1632 |1007 |2212 |1036k|  2 |   7 |1145 | 2.109187e+00 | 8.644026e+00 | 309.83%|   9.24%
 time | node  | left  |LP iter|LP it/n|mem/heur|mdpt |vars |cons |rows |cuts |sepa|confs|strbr|  dualbound   | primalbound  |  gap   | compl. 
  285s|  9000 |  5723 |  2097k| 232.6 |   368M |  63 |1632 |1007 |2309 |1043k|  7 |   7 |1146 | 2.109187e+00 | 8.644026e+00 | 309.83%|   9.33%
  288s|  9100 |  5759 |  2109k| 231.3 |   373M |  63 |1632 |1007 |2314 |1052k|  5 |   7 |1150 | 2.109187e+00 | 8.644026e+00 | 309.83%|   9.40%
  290s|  9200 |  5785 |  2130k| 231.1 |   375M |  63 |1632 |1007 |2173 |1061k|  7 |   7 |1156 | 2.109187e+00 | 8.644026e+00 | 309.83%|   9.50%
  293s|  9300 |  5827 |  2152k| 230.9 |   377M |  67 |1632 |1007 |2507 |1070k|  9 |   7 |1162 | 2.109187e+00 | 8.644026e+00 | 309.83%|   9.54%
  295s|  9400 |  5857 |  2168k| 230.2 |   377M |  68 |1632 |1007 |2313 |1077k|  7 |   7 |1163 | 2.109187e+00 | 8.644026e+00 | 309.83%|   9.72%
  297s|  9500 |  5889 |  2198k| 230.9 |   378M |  68 |1632 |1007 |2205 |1083k| 11 |   7 |1164 | 2.109187e+00 | 8.644026e+00 | 309.83%|   9.76%
  299s|  9600 |  5923 |  2224k| 231.2 |   380M |  68 |1632 |1007 |2418 |1090k|  2 |   8 |1168 | 2.109187e+00 | 8.644026e+00 | 309.83%|   9.78%

SCIP Status        : solving was interrupted [time limit reached]
Solving Time (sec) : 300.00
Solving Nodes      : 9657
Primal Bound       : +8.64402561502868e+00 (11 solutions)
Dual Bound         : +2.10918675102333e+00
Gap                : 309.83 %


--- Reading solution for model GAMS_MODEL
***
*** Solver did not provide marginals for model GAMS_MODEL
***
--- Executing after solve: elapsed 0:05:00.336
--- model.gms(3373) 4 Mb
--- model.gms(4924) 6 Mb
--- Putfile results /local/scratch/a/sgusev/repos/k_means/data/gams_scip_gdp.hull/no_mode/2026-02-16_08-06-41/original/results.dat
--- Putfile statresults /local/scratch/a/sgusev/repos/k_means/data/gams_scip_gdp.hull/no_mode/2026-02-16_08-06-41/original/resultsstat.dat
*** Status: Normal completion
--- Job model.gms Stop 02/16/26 08:11:42 elapsed 0:05:00.338
Original problem solved. Time taken: 300.93230295181274 seconds
Original objective value: 8.644025615028683
